/* Objective function */
min: 11*y_11 + 10*y_10 + 7*y_7;

r11_0: x11_0_1 + x11_0_2 + x_11_0_3 + x11_0_4 + x11_0_5 = y_11;
r11_1: x11_0_1 = x11_1_2 + x11_1_3 + x11_1_4 + x11_1_5 + x11_1_6;
r11_2: x11_0_2 + x11_1_2 = x11_2_3 + x11_2_4 + x11_2_5 + x11_2_6 + x11_2_7;
r11_3: x11_0_3 + x11_1_3 + x11_2_3 = x11_3_4 + x11_3_5 + x11_3_6 + x11_3_7 + x11_3_8;
r11_4: x11_0_4 + x11_1_4 + x11_2_4 + x11_3_4 = x11_4_5 + x11_4_6 + x11_4_7 + x11_4_8 + x11_4_9;
r11_5: x11_0_5 + x11_1_5 + x11_2_5 + x11_3_5 + x11_4_5 = x11_5_6 + x11_5_7 + x11_5_8 + x11_5_9 + x11_5_10;
r11_6: x11_1_6 + x11_2_6 + x11_3_6 + x11_4_6 + x11_5_6 = x11_6_7 + x11_6_8 + x11_6_9 + x11_6_10 + x11_6_11;
r11_7: x11_2_7 + x11_3_7 + x11_4_7 + x11_5_7 + x11_6_7 = x11_7_8 + x11_7_9 + x11_7_10 + x11_7_11;
r11_8: x11_3_8 + x11_4_8 + x11_5_8 + x11_6_8 + x11_7_8 = x11_8_9 + x11_8_10 + x11_8_11;
r11_9: x11_4_9 + x11_5_9 + x11_6_9 + x11_7_9 + x11_8_9 = x11_9_10 + x11_9_11;
r11_10: x11_5_10 + x11_6_10 + x11_7_10 + x11_8_10 + x11_9_10 = x11_10_11;
r11_11: x11_6_11 + x11_7_11 + x11_8_11 + x11_9_11 + x11_10_11 = y_11;

r10_0: x10_0_1 + x10_0_2 + x10_0_3 + x10_0_4 + x10_0_5 = y_10;
r10_1: x10_0_1 = x10_1_2 + x10_1_3 + x10_1_4 + x10_1_5 + x10_1_6;
r10_2: x10_0_2 + x10_1_2 = x10_2_3 + x10_2_4 + x10_2_5 + x10_2_6 + x10_2_7;
r10_3: x10_0_3 + x10_1_3 + x10_2_3 = x10_3_4 + x10_3_5 + x10_3_6 + x10_3_7 + x10_3_8;
r10_4: x10_0_4 + x10_1_4 + x10_2_4 + x10_3_4 = x10_4_5 + x10_4_6 + x10_4_7 + x10_4_8 + x10_4_9;
r10_5: x10_0_5 + x10_1_5 + x10_2_5 + x10_3_5 + x10_4_5 = x10_5_6 + x10_5_7 + x10_5_8 + x10_5_9 + x10_5_10;
r10_6: x10_1_6 + x10_2_6 + x10_3_6 + x10_4_6 + x10_5_6 = x10_6_7 + x10_6_8 + x10_6_9 + x10_6_10;
r10_7: x10_2_7 + x10_3_7 + x10_4_7 + x10_5_7 + x10_6_7 = x10_7_8 + x10_7_9 + x10_7_10;
r10_8: x10_3_8 + x10_4_8 + x10_5_8 + x10_6_8 + x10_7_8 = x10_8_9 + x10_8_10;
r10_9: x10_4_9 + x10_5_9 + x10_6_9 + x10_7_9 + x10_8_9 = x10_9_10;
r10_10: x10_5_10 + x10_6_10 + x10_7_10 + x10_8_10 + x10_9_10 = y_10;

r7_0: x7_0_1 + x7_0_2 + x7_0_3 + x7_0_4 + x7_0_5 = y_7;
r7_1: x7_0_1 = x7_1_2 + x7_1_3 + x7_1_4 + x7_1_5 + x7_1_6;
r7_2: x7_0_2 + x7_1_2 = x7_2_3 + x7_2_4 + x7_2_5 + x7_2_6 + x7_2_7;
r7_3: x7_0_3 + x7_1_3 + x7_2_3 = x7_3_4 + x7_3_5 + x7_3_6 + x7_3_7;
r7_4: x7_0_4 + x7_1_4 + x7_2_4 + x7_3_4 = x7_4_5 + x7_4_6 + x7_4_7;
r7_5: x7_0_5 + x7_1_5 + x7_2_5 + x7_3_5 + x7_4_5 = x7_5_6 + x7_5_7;
r7_6: x7_1_6 + x7_2_6 + x7_3_6 + x7_4_6 + x7_5_6 = x7_6_7;
r7_7: x7_2_7 + x7_3_7 + x7_4_7 + x7_5_7 + x7_6_7 = y_7;

r_item1:
  x11_0_1 + x11_1_2 + x11_2_3 + x11_3_4 + x11_4_5 + x11_5_6 + x11_6_7 + x11_7_8 + x11_8_9 + x11_9_10 + x11_10_11 +
  x10_0_1 + x10_1_2 + x10_2_3 + x10_3_4 + x10_4_5 + x10_5_6 + x10_6_7 + x10_7_8 + x10_8_9 + x10_9_10 +
  x7_0_1  + x7_1_2  + x7_2_3  + x7_3_4  + x7_4_5  + x7_5_6  + x7_6_7
  = 2;

r_item2:
  x11_0_2 + x11_1_3 + x11_2_4 + x11_3_5 + x11_4_6 + x11_5_7 + x11_6_8 + x11_7_9 + x11_8_10 + x11_9_11 +
  x10_0_2 + x10_1_3 + x10_2_4 + x10_3_5 + x10_4_6 + x10_5_7 + x10_6_8 + x10_7_9 + x10_8_10 +
  x7_0_2  + x7_1_3  + x7_2_4  + x7_3_5  + x7_4_6  + x7_5_7
  = 11;

r_item3:
  x11_0_3 + x11_1_4 + x11_2_5 + x11_3_6 + x11_4_7 + x11_5_8 + x11_6_9 + x11_7_10 + x11_8_11 +
  x10_0_3 + x10_1_4 + x10_2_5 + x10_3_6 + x10_4_7 + x10_5_8 + x10_6_9 + x10_7_10 +
  x7_0_3 + x7_1_4 + x7_2_5 + x7_3_6 + x7_4_7
  = 0;

r_item4:
  x11_0_4 + x11_1_5 + x11_2_6 + x11_3_7 + x11_4_8 + x11_5_9 + x11_6_10 + x11_7_11 +
  x10_0_4 + x10_1_5 + x10_2_6 + x10_3_7 + x10_4_8 + x10_5_9 + x10_6_10 +
  x7_0_4  + x7_1_5  + x7_2_6  + x7_3_7
  = 11;

r_item5:
  x11_0_5 + x11_1_6 + x11_2_7 + x11_3_8 + x11_4_9 + x11_5_10 + x11_6_11 +
  x10_0_5 + x10_1_6 + x10_2_7 + x10_3_8 + x10_4_9 + x10_5_10 +
  x7_0_5  + x7_1_6  + x7_2_7
  = 5;

r_lim10: y_10 <= 8;
r_lim7:  y_7 <= 7;

int y_11, y_10, y_7;

int
  x11_0_1, x11_0_2, x11_0_3, x11_0_4, x11_0_5,
  x11_1_2, x11_1_3, x11_1_4, x11_1_5, x11_1_6,
  x11_2_3, x11_2_4, x11_2_5, x11_2_6, x11_2_7,
  x11_3_4, x11_3_5, x11_3_6, x11_3_7, x11_3_8,
  x11_4_5, x11_4_6, x11_4_7, x11_4_8, x11_4_9,
  x11_5_6, x11_5_7, x11_5_8, x11_5_9, x11_5_10,
  x11_6_7, x11_6_8, x11_6_9, x11_6_10, x11_6_11,
  x11_7_8, x11_7_9, x11_7_10, x11_7_11,
  x11_8_9, x11_8_10, x11_8_11,
  x11_9_10, x11_9_11,
  x11_10_11;

int
  x10_0_1, x10_0_2, x10_0_3, x10_0_4, x10_0_5,
  x10_1_2, x10_1_3, x10_1_4, x10_1_5, x10_1_6,
  x10_2_3, x10_2_4, x10_2_5, x10_2_6, x10_2_7,
  x10_3_4, x10_3_5, x10_3_6, x10_3_7, x10_3_8,
  x10_4_5, x10_4_6, x10_4_7, x10_4_8, x10_4_9,
  x10_5_6, x10_5_7, x10_5_8, x10_5_9, x10_5_10,
  x10_6_7, x10_6_8, x10_6_9, x10_6_10,
  x10_7_8, x10_7_9, x10_7_10,
  x10_8_9, x10_8_10,
  x10_9_10;

int
  x7_0_1, x7_0_2, x7_0_3, x7_0_4, x7_0_5,
  x7_1_2, x7_1_3, x7_1_4, x7_1_5, x7_1_6,
  x7_2_3, x7_2_4, x7_2_5, x7_2_6, x7_2_7,
  x7_3_4, x7_3_5, x7_3_6, x7_3_7,
  x7_4_5, x7_4_6, x7_4_7,
  x7_5_6, x7_5_7,
  x7_6_7;